(declare-fun e () String)
(declare-fun c () String)
(declare-fun g () String)
(declare-fun b () String)
(declare-fun f () String)
(declare-fun a () String)
(declare-fun h () String)
(assert (= (str.++ g h) h))
(assert (= (str.++ c "fdgf" b) (str.++ "ab" e "gh")))
(assert (= "hh" (str.++ a f)))

(check-sat)
